2
1000 4
265
22 1 3
23 1 1
24 1 2
27 1 1
28 1 3
29 1 2
31 1 1
33 1 2
34 1 2
35 1 3
37 1 1
38 1 3
39 1 1
40 1 1
41 1 1
45 1 1
46 1 2
47 1 2
48 1 3
49 1 2
50 1 1
51 1 1
52 1 1
53 1 1
54 1 2
55 1 1
56 1 2
58 1 1
59 1 1
60 1 1
61 1 1
63 1 2
65 1 1
67 1 3
68 1 2
71 1 6
72 1 1
73 1 2
74 1 3
77 1 1
78 1 3
79 1 1
81 1 1
82 1 2
83 1 1
84 1 1
86 1 2
87 1 1
88 1 2
91 1 2
92 1 1
93 1 2
94 1 3
95 1 2
96 1 4
97 1 1
98 1 1
99 1 1
100 1 4
101 1 2
104 1 2
105 1 1
106 1 1
107 1 5
108 1 2
109 1 1
110 1 2
112 1 3
113 1 5
115 1 1
116 1 2
117 1 2
118 1 2
119 1 1
120 1 2
121 1 1
123 1 2
124 1 1
125 1 3
128 1 2
129 1 1
130 1 1
131 1 2
132 1 1
133 1 3
134 1 1
135 1 3
136 1 2
138 1 1
140 1 1
141 1 1
142 1 3
144 1 1
145 1 1
147 1 3
148 1 1
150 1 1
151 1 3
152 1 1
153 1 2
154 1 1
155 1 2
157 1 2
159 1 1
162 1 3
163 1 2
164 1 3
165 1 2
167 1 2
169 1 4
171 1 2
172 1 1
173 1 2
174 1 5
175 1 1
176 1 1
177 1 2
178 1 3
180 1 3
181 1 3
182 1 3
183 1 1
184 1 1
186 1 2
187 1 1
188 1 2
189 1 1
190 1 2
191 1 1
192 1 1
194 1 1
195 1 3
197 1 1
198 1 2
199 1 3
200 1 2
201 1 1
202 1 1
203 1 1
204 1 2
205 1 1
207 1 1
209 1 1
210 1 4
211 1 2
214 1 3
215 1 4
217 1 2
218 1 1
219 1 2
220 1 1
222 1 1
223 1 2
224 1 1
225 1 1
230 1 1
231 1 2
232 1 1
233 1 1
234 1 2
236 1 3
239 1 1
240 1 3
241 1 1
242 1 3
246 1 3
247 1 2
248 1 1
250 1 1
251 1 1
252 1 4
253 1 2
254 1 2
255 1 1
256 1 3
257 1 2
258 1 2
260 1 2
262 1 1
263 1 1
264 1 2
265 1 1
266 1 1
267 1 2
268 1 1
269 1 3
270 1 1
271 1 2
272 1 3
273 1 1
274 1 2
278 1 2
279 1 3
280 1 1
281 1 2
282 1 1
284 1 3
285 1 1
288 1 1
289 1 2
291 1 3
292 1 3
293 1 1
294 1 2
295 1 4
296 1 3
297 1 2
298 1 2
299 1 2
300 1 2
301 1 1
303 1 1
304 1 1
305 1 2
306 1 1
307 1 1
309 1 2
310 1 1
312 1 3
313 1 1
314 1 2
315 1 2
316 1 2
317 1 2
318 1 2
319 1 1
320 1 1
321 1 3
323 1 1
325 1 2
326 1 1
327 1 3
328 1 1
331 1 1
333 1 1
335 1 1
336 1 2
337 1 4
340 1 1
341 1 1
342 1 3
345 1 2
346 1 7
349 1 5
350 1 1
351 1 1
353 1 2
354 1 4
356 1 1
358 1 2
361 1 3
362 1 1
363 1 2
364 1 2
365 1 3
366 1 1
368 1 2
369 1 4
370 1 1
371 1 2
372 1 3
373 1 3
375 1 2
378 1 3
379 1 1
